c This is the counter example for ../inputs/d_4_ParallelIsomorphismBreadthFirstSearch_path_width_4_Premise_CounterExample_GraphPaceFormat.gr
p tw 22 40
1 4
3 4
2 3
4 5
3 6
1 7
7 6
2 7
7 5
8 6
1 8
9 6
9 10
8 10
10 5
2 10
8 12
11 13
13 12
9 13
12 5
13 14
9 15
15 12
16 11
16 17
16 14
16 15
18 14
18 15
19 14
18 20
11 20
19 20
17 20
18 21
22 11
22 21
22 19
17 21
